NAME          etoh                                           
ROWS                                                         
 N  COST                                                     
 E  EQ1                                                      
 E  EQ2                                                      
 E  EQ3                                                      
 E  EQ4                                                      
 E  EQ5                                                      
 E  EQ6                                                      
 E  EQ7                                                      
 E  EQ8                                                      
 E  EQ9                                                      
 E  EQ10                                                     
 E  EQ11                                                     
 E  EQ12                                                     
 E  EQ13                                                     
 E  EQ14                                                     
 E  EQ15                                                     
 E  EQ16                                                     
 E  EQ17                                                     
 E  EQ18                                                     
 E  EQ19                                                     
 E  EQ20                                                     
 E  EQ21                                                     
 E  EQ22                                                     
 E  EQ23                                                     
 E  EQ24                                                     
 E  EQ25                                                     
 E  EQ26                                                     
 E  EQ27                                                     
 E  EQ28                                                     
 E  EQ29                                                     
 E  EQ30                                                     
 E  EQ31                                                     
 E  EQ32                                                     
 E  EQ33                                                     
 E  EQ34                                                     
 E  EQ35                                                     
 E  EQ36                                                     
 E  EQ37                                                     
 E  EQ38                                                     
 E  EQ39                                                     
 E  EQ40                                                     
 E  EQ41                                                     
 E  EQ42                                                     
 E  EQ43                                                     
 E  EQ44                                                     
 E  EQ45                                                     
 E  EQ46                                                     
 E  EQ47                                                     
 E  EQ48                                                     
 E  EQ49                                                     
 E  EQ50                                                     
 E  EQ51                                                     
 E  EQ52                                                     
 E  EQ53                                                     
 E  EQ54                                                     
 E  EQ55                                                     
 E  EQ56                                                     
 E  EQ57                                                     
 E  EQ58                                                     
 E  EQ59                                                     
 E  EQ60                                                     
 E  EQ61                                                     
 E  EQ62                                                     
 E  EQ63                                                     
 E  EQ64                                                     
 E  EQ65                                                     
 E  EQ66                                                     
 E  EQ67                                                     
 E  EQ68                                                     
 E  EQ69                                                     
 E  EQ70                                                     
 E  EQ71                                                     
 E  EQ72                                                     
COLUMNS                                                      
    ACALD10   EQ8       -1             EQ10      1           
    ACALD10   EQ21      -1             EQ43      1           
    ACALD10   EQ50      -1             EQ51      1           
    ACALDt11  EQ8       1              EQ9       -1          
    ACKr12    EQ6       -1             EQ12      1           
    ACKr12    EQ13      1              EQ17      -1          
    ACONTa14  EQ11      1              EQ18      -1          
    ACONTa14  EQ41      1                                    
    ACONTb15  EQ11      -1             EQ41      -1          
    ACONTb15  EQ45      1                                    
    ACt2r16   EQ6       1              EQ7       -1          
    ACt2r16   EQ43      1              EQ44      -1          
    ADK117    EQ13      2              EQ16      -1          
    ADK117    EQ17      -1                                   
    AKGDH18   EQ14      -1             EQ19      1           
    AKGDH18   EQ21      -1             EQ50      -1          
    AKGDH18   EQ51      1              EQ71      1           
    AKGt2r19  EQ14      1              EQ15      -1          
    AKGt2r19  EQ43      1              EQ44      -1          
    ALCD2x21  EQ8       1              EQ24      -1          
    ALCD2x21  EQ43      1              EQ50      -1          
    ALCD2x21  EQ51      1                                    
    ATPM22    EQ13      1              EQ17      -1          
    ATPM22    EQ41      -1             EQ43      1           
    ATPM22    EQ60      1                                    
    ATPS4r23  EQ13      -1             EQ17      1           
    ATPS4r23  EQ41      1              EQ43      3           
    ATPS4r23  EQ44      -4             EQ60      -1          
    BIOMAS24  COST      -1             EQ3       -1.496      
    BIOMAS24  EQ10      -3.7478        EQ13      59.81       
    BIOMAS24  EQ14      4.1182         EQ17      -59.81      
    BIOMAS24  EQ21      3.7478         EQ23      -0.361      
    BIOMAS24  EQ26      -0.0709        EQ33      -0.129      
    BIOMAS24  EQ34      -0.205         EQ36      -0.2557     
    BIOMAS24  EQ38      -4.9414        EQ41      -59.81      
    BIOMAS24  EQ43      59.81          EQ50      -3.547      
    BIOMAS24  EQ51      3.547          EQ52      13.0279     
    BIOMAS24  EQ53      -13.0279       EQ58      -1.7867     
    BIOMAS24  EQ59      -0.5191        EQ60      59.81       
    BIOMAS24  EQ62      -2.8328        EQ66      -0.8977     
    CO2t25    EQ19      1              EQ20      -1          
    CS26      EQ10      -1             EQ18      1           
    CS26      EQ21      1              EQ41      -1          
    CS26      EQ43      1              EQ58      -1          
    CYTBD27   EQ41      1              EQ43      -2          
    CYTBD27   EQ44      2              EQ56      -0.5        
    CYTBD27   EQ64      1              EQ65      -1          
    D_LACt29  EQ43      1              EQ44      -1          
    D_LACt29  EQ46      1              EQ47      -1          
    ENO30     EQ2       -1             EQ41      1           
    ENO30     EQ59      1                                    
    ETOHt231  EQ24      1              EQ25      -1          
    ETOHt231  EQ43      1              EQ44      -1          
    EX_ac_32  EQ7       -1                                   
    EX_aca33  EQ9       -1                                   
    EX_akg34  EQ15      -1                                   
    EX_co235  EQ20      -1                                   
    EX_eto36  COST      0.0001         EQ25      -1          
    EX_for37  EQ29      -1                                   
    EX_fru38  EQ30      -1                                   
    EX_fum39  EQ32      -1                                   
    EX_glc40  EQ35      -1                                   
    EX_gln41  EQ37      -1                                   
    EX_glu42  EQ39      -1                                   
    EX_h_e44  EQ44      -1                                   
    EX_h2o43  EQ42      -1                                   
    EX_lac46  EQ47      -1                                   
    EX_mal47  EQ49      -1                                   
    EX_nh448  EQ55      -1                                   
    EX_o2_49  EQ57      -1                                   
    EX_pi_50  EQ61      -1                                   
    EX_pyr51  EQ63      -1                                   
    EX_suc52  EQ70      -1                                   
    FBA53     EQ22      1              EQ27      -1          
    FBA53     EQ33      1                                    
    FBP54     EQ26      1              EQ27      -1          
    FBP54     EQ41      -1             EQ60      1           
    FORt256   EQ28      1              EQ29      -1          
    FORt256   EQ43      1              EQ44      -1          
    FORt55    EQ28      1              EQ29      -1          
    FRD757    EQ31      -1             EQ64      1           
    FRD757    EQ65      -1             EQ69      1           
    FRUpts59  EQ26      1              EQ30      -1          
    FRUpts59  EQ59      -1             EQ62      1           
    FUM60     EQ31      -1             EQ41      -1          
    FUM60     EQ48      1                                    
    FUMt2_61  EQ31      1              EQ32      -1          
    FUMt2_61  EQ43      2              EQ44      -2          
    G6PDH262  EQ5       1              EQ34      -1          
    G6PDH262  EQ43      1              EQ52      -1          
    G6PDH262  EQ53      1                                    
    GAPD63    EQ1       1              EQ33      -1          
    GAPD63    EQ43      1              EQ50      -1          
    GAPD63    EQ51      1              EQ60      -1          
    GLCpts64  EQ34      1              EQ35      -1          
    GLCpts64  EQ59      -1             EQ62      1           
    GLNS65    EQ13      1              EQ17      -1          
    GLNS65    EQ36      1              EQ38      -1          
    GLNS65    EQ43      1              EQ54      -1          
    GLNS65    EQ60      1                                    
    GLNabc66  EQ13      1              EQ17      -1          
    GLNabc66  EQ36      1              EQ37      -1          
    GLNabc66  EQ41      -1             EQ43      1           
    GLNabc66  EQ60      1                                    
    GLUDy67   EQ14      1              EQ38      -1          
    GLUDy67   EQ41      -1             EQ43      1           
    GLUDy67   EQ52      -1             EQ53      1           
    GLUDy67   EQ54      1                                    
    GLUN68    EQ36      -1             EQ38      1           
    GLUN68    EQ41      -1             EQ54      1           
    GLUSy69   EQ14      -1             EQ36      -1          
    GLUSy69   EQ38      2              EQ43      -1          
    GLUSy69   EQ52      1              EQ53      -1          
    GLUt2r70  EQ38      1              EQ39      -1          
    GLUt2r70  EQ43      1              EQ44      -1          
    GND71     EQ4       -1             EQ19      1           
    GND71     EQ52      -1             EQ53      1           
    GND71     EQ67      1                                    
    H2Ot72    EQ41      1              EQ42      -1          
    ICDHyr74  EQ14      1              EQ19      1           
    ICDHyr74  EQ45      -1             EQ52      -1          
    ICDHyr74  EQ53      1                                    
    ICL75     EQ40      1              EQ45      -1          
    ICL75     EQ69      1                                    
    LDH_D77   EQ43      1              EQ46      -1          
    LDH_D77   EQ50      -1             EQ51      1           
    LDH_D77   EQ62      1                                    
    MALS78    EQ10      -1             EQ21      1           
    MALS78    EQ40      -1             EQ41      -1          
    MALS78    EQ43      1              EQ48      1           
    MALt2_79  EQ43      2              EQ44      -2          
    MALt2_79  EQ48      1              EQ49      -1          
    MDH80     EQ43      1              EQ48      -1          
    MDH80     EQ50      -1             EQ51      1           
    MDH80     EQ58      1                                    
    ME181     EQ19      1              EQ48      -1          
    ME181     EQ50      -1             EQ51      1           
    ME181     EQ62      1                                    
    ME282     EQ19      1              EQ48      -1          
    ME282     EQ52      -1             EQ53      1           
    ME282     EQ62      1                                    
    NADH1683  EQ43      -4             EQ44      3           
    NADH1683  EQ50      1              EQ51      -1          
    NADH1683  EQ64      -1             EQ65      1           
    NADTRH84  EQ50      -1             EQ51      1           
    NADTRH84  EQ52      1              EQ53      -1          
    NH4t85    EQ54      1              EQ55      -1          
    O2t86     EQ56      1              EQ57      -1          
    PDH88     EQ10      1              EQ19      1           
    PDH88     EQ21      -1             EQ50      -1          
    PDH88     EQ51      1              EQ62      -1          
    PFK89     EQ13      1              EQ17      -1          
    PFK89     EQ26      -1             EQ27      1           
    PFK89     EQ43      1                                    
    PFL90     EQ10      1              EQ21      -1          
    PFL90     EQ28      1              EQ62      -1          
    PGI91     EQ26      1              EQ34      -1          
    PGK92     EQ1       1              EQ3       -1          
    PGK92     EQ13      1              EQ17      -1          
    PGL93     EQ4       1              EQ5       -1          
    PGL93     EQ41      -1             EQ43      1           
    PGM94     EQ2       -1             EQ3       1           
    PIt2r95   EQ43      1              EQ44      -1          
    PIt2r95   EQ60      1              EQ61      -1          
    PPC96     EQ19      -1             EQ41      -1          
    PPC96     EQ43      1              EQ58      1           
    PPC96     EQ59      -1             EQ60      1           
    PPCK97    EQ13      1              EQ17      -1          
    PPCK97    EQ19      1              EQ58      -1          
    PPCK97    EQ59      1                                    
    PPS98     EQ16      1              EQ17      -1          
    PPS98     EQ41      -1             EQ43      2           
    PPS98     EQ59      1              EQ60      1           
    PPS98     EQ62      -1                                   
    PTAr99    EQ10      -1             EQ12      1           
    PTAr99    EQ21      1              EQ60      -1          
    PYK10     EQ13      -1             EQ17      1           
    PYK10     EQ43      -1             EQ59      -1          
    PYK10     EQ62      1                                    
    PYRt212   EQ43      1              EQ44      -1          
    PYRt212   EQ62      1              EQ63      -1          
    RPE13     EQ67      -1             EQ72      1           
    RPI14     EQ66      -1             EQ67      1           
    SUCCt215  EQ43      2              EQ44      -2          
    SUCCt215  EQ69      1              EQ70      -1          
    SUCCt316  EQ43      1              EQ44      -1          
    SUCCt316  EQ69      -1             EQ70      1           
    SUCDi17   EQ31      1              EQ64      -1          
    SUCDi17   EQ65      1              EQ69      -1          
    SUCOAS18  EQ13      1              EQ17      -1          
    SUCOAS18  EQ21      -1             EQ60      1           
    SUCOAS18  EQ69      -1             EQ71      1           
    TALA19    EQ23      1              EQ26      1           
    TALA19    EQ33      -1             EQ68      -1          
    THD220    EQ43      2              EQ44      -2          
    THD220    EQ50      1              EQ51      -1          
    THD220    EQ52      -1             EQ53      1           
    TKT121    EQ33      1              EQ66      -1          
    TKT121    EQ68      1              EQ72      -1          
    TKT222    EQ23      -1             EQ26      1           
    TKT222    EQ33      1              EQ72      -1          
    TPI23     EQ22      -1             EQ33      1           
RHS                                                          
BOUNDS                                                       
 LO BND1      ACALD10   -1000                                
 UP BND1      ACALD10   1000                                 
 LO BND1      ACALDt11  -1000                                
 UP BND1      ACALDt11  1000                                 
 LO BND1      ACKr12    -1000                                
 UP BND1      ACKr12    1000                                 
 LO BND1      ACONTa14  -1000                                
 UP BND1      ACONTa14  1000                                 
 LO BND1      ACONTb15  -1000                                
 UP BND1      ACONTb15  1000                                 
 LO BND1      ACt2r16   -1000                                
 UP BND1      ACt2r16   1000                                 
 LO BND1      ADK117    -1000                                
 UP BND1      ADK117    1000                                 
 UP BND1      AKGDH18   1000                                 
 LO BND1      AKGt2r19  -1000                                
 UP BND1      AKGt2r19  1000                                 
 LO BND1      ALCD2x21  -1000                                
 UP BND1      ALCD2x21  1000                                 
 LO BND1      ATPM22    8.39                                 
 UP BND1      ATPM22    1000                                 
 LO BND1      ATPS4r23  -1000                                
 UP BND1      ATPS4r23  1000                                 
 LO BND1      BIOMAS24  0.0423                               
 UP BND1      BIOMAS24  1000                                 
 LO BND1      CO2t25    -1000                                
 UP BND1      CO2t25    1000                                 
 UP BND1      CS26      1000                                 
 UP BND1      CYTBD27   1000                                 
 LO BND1      D_LACt29  -1000                                
 UP BND1      D_LACt29  1000                                 
 LO BND1      ENO30     -1000                                
 UP BND1      ENO30     1000                                 
 LO BND1      ETOHt231  -1000                                
 UP BND1      ETOHt231  1000                                 
 UP BND1      EX_ac_32  1000                                 
 UP BND1      EX_aca33  1000                                 
 UP BND1      EX_akg34  1000                                 
 LO BND1      EX_co235  -1000                                
 UP BND1      EX_co235  1000                                 
 UP BND1      EX_eto36  1000                                 
 UP BND1      EX_for37  1000                                 
 UP BND1      EX_fru38  1000                                 
 UP BND1      EX_fum39  1000                                 
 LO BND1      EX_glc40  -10                                  
 UP BND1      EX_glc40  -10                                  
 UP BND1      EX_gln41  1000                                 
 UP BND1      EX_glu42  1000                                 
 LO BND1      EX_h_e44  -1000                                
 UP BND1      EX_h_e44  1000                                 
 LO BND1      EX_h2o43  -1000                                
 UP BND1      EX_h2o43  1000                                 
 UP BND1      EX_lac46  1000                                 
 UP BND1      EX_mal47  1000                                 
 LO BND1      EX_nh448  -1000                                
 UP BND1      EX_nh448  1000                                 
 UP BND1      EX_o2_49  1000                                 
 LO BND1      EX_pi_50  -1000                                
 UP BND1      EX_pi_50  1000                                 
 UP BND1      EX_pyr51  1000                                 
 UP BND1      EX_suc52  1000                                 
 LO BND1      FBA53     -1000                                
 UP BND1      FBA53     1000                                 
 UP BND1      FBP54     1000                                 
 UP BND1      FORt256   1000                                 
 LO BND1      FORt55    -1000                                
 UP BND1      FORt55    0                                    
 UP BND1      FRD757    1000                                 
 UP BND1      FRUpts59  1000                                 
 LO BND1      FUM60     -1000                                
 UP BND1      FUM60     1000                                 
 UP BND1      FUMt2_61  1000                                 
 LO BND1      G6PDH262  -1000                                
 UP BND1      G6PDH262  1000                                 
 LO BND1      GAPD63    -1000                                
 UP BND1      GAPD63    1000                                 
 UP BND1      GLCpts64  1000                                 
 UP BND1      GLNS65    1000                                 
 UP BND1      GLNabc66  1000                                 
 LO BND1      GLUDy67   -1000                                
 UP BND1      GLUDy67   1000                                 
 UP BND1      GLUN68    1000                                 
 UP BND1      GLUSy69   1000                                 
 LO BND1      GLUt2r70  -1000                                
 UP BND1      GLUt2r70  1000                                 
 UP BND1      GND71     1000                                 
 LO BND1      H2Ot72    -1000                                
 UP BND1      H2Ot72    1000                                 
 LO BND1      ICDHyr74  -1000                                
 UP BND1      ICDHyr74  1000                                 
 UP BND1      ICL75     1000                                 
 LO BND1      LDH_D77   -1000                                
 UP BND1      LDH_D77   1000                                 
 UP BND1      MALS78    1000                                 
 UP BND1      MALt2_79  1000                                 
 LO BND1      MDH80     -1000                                
 UP BND1      MDH80     1000                                 
 UP BND1      ME181     1000                                 
 UP BND1      ME282     1000                                 
 UP BND1      NADH1683  1000                                 
 UP BND1      NADTRH84  1000                                 
 LO BND1      NH4t85    -1000                                
 UP BND1      NH4t85    1000                                 
 LO BND1      O2t86     -1000                                
 UP BND1      O2t86     1000                                 
 UP BND1      PDH88     1000                                 
 UP BND1      PFK89     1000                                 
 UP BND1      PFL90     1000                                 
 LO BND1      PGI91     -1000                                
 UP BND1      PGI91     1000                                 
 LO BND1      PGK92     -1000                                
 UP BND1      PGK92     1000                                 
 UP BND1      PGL93     1000                                 
 LO BND1      PGM94     -1000                                
 UP BND1      PGM94     1000                                 
 LO BND1      PIt2r95   -1000                                
 UP BND1      PIt2r95   1000                                 
 UP BND1      PPC96     1000                                 
 UP BND1      PPCK97    1000                                 
 UP BND1      PPS98     1000                                 
 LO BND1      PTAr99    -1000                                
 UP BND1      PTAr99    1000                                 
 UP BND1      PYK10     1000                                 
 LO BND1      PYRt212   -1000                                
 UP BND1      PYRt212   1000                                 
 LO BND1      RPE13     -1000                                
 UP BND1      RPE13     1000                                 
 LO BND1      RPI14     -1000                                
 UP BND1      RPI14     1000                                 
 UP BND1      SUCCt215  1000                                 
 UP BND1      SUCCt316  1000                                 
 UP BND1      SUCDi17   1000                                 
 LO BND1      SUCOAS18  -1000                                
 UP BND1      SUCOAS18  1000                                 
 LO BND1      TALA19    -1000                                
 UP BND1      TALA19    1000                                 
 UP BND1      THD220    1000                                 
 LO BND1      TKT121    -1000                                
 UP BND1      TKT121    1000                                 
 LO BND1      TKT222    -1000                                
 UP BND1      TKT222    1000                                 
 LO BND1      TPI23     -1000                                
 UP BND1      TPI23     1000                                 
ENDATA                                                       
